(set-logic HORN)
(declare-fun state (Int Int Int Int Int Int Int Int Int Int Int Int Int Int Int Int Int Int Int (Array Int Int) (Array Int Int) (Array Int Int) (Array Int Int) Int Int (Array Int Int) (Array Int Int) Int Int Int Int Int Int Int Int Int Int Int Int Int Bool Bool Bool Int Int Int Int Int Int) Bool)
(assert (forall ((|hbv_ULTIMATE.start_ULTIMATE.startENTRY_0_Int| Int) (|hhv_ULTIMATE.start_L-1_1_Int| Int) (|hbv_ULTIMATE.start_ULTIMATE.startENTRY_2_Int| Int) (|hhv_ULTIMATE.start_L-1_3_Int| Int) (|hbv_ULTIMATE.start_ULTIMATE.startENTRY_4_Int| Int) (|hhv_ULTIMATE.start_L-1_5_Int| Int) (|hbv_ULTIMATE.start_ULTIMATE.startENTRY_6_Int| Int) (|hhv_ULTIMATE.start_L-1_7_Int| Int) (|hbv_ULTIMATE.start_ULTIMATE.startENTRY_8_Int| Int) (|hhv_ULTIMATE.start_L-1_9_Int| Int) (|hbv_ULTIMATE.start_ULTIMATE.startENTRY_10_Int| Int) (|hhv_ULTIMATE.start_L-1_11_Int| Int) (|hbv_ULTIMATE.start_ULTIMATE.startENTRY_12_Int| Int) (|hhv_ULTIMATE.start_L-1_13_Int| Int) (|hhv_ULTIMATE.start_L-1_14_Int| Int) (|hbv_ULTIMATE.start_ULTIMATE.startENTRY_15_Int| Int) (|hhv_ULTIMATE.start_L-1_16_Int| Int) (|hbv_ULTIMATE.start_ULTIMATE.startENTRY_17_Int| Int) (|hhv_ULTIMATE.start_L-1_18_Int| Int) (|hbv_ULTIMATE.start_ULTIMATE.startENTRY_19_Array_Int_Int| (Array Int Int)) (|hhv_ULTIMATE.start_L-1_20_Array_Int_Int| (Array Int Int)) (|hhv_ULTIMATE.start_L-1_21_Array_Int_Array_Int_Int| (Array Int Int)) (|hhv_ULTIMATE.start_L-1_22_Array_Int_Array_Int_Int| (Array Int Int)) (|hbv_ULTIMATE.start_ULTIMATE.startENTRY_23_Int| Int) (|hhv_ULTIMATE.start_L-1_24_Int| Int) (|hbv_ULTIMATE.start_ULTIMATE.startENTRY_25_Array_Int_Int| (Array Int Int)) (|hhv_ULTIMATE.start_L-1_26_Array_Int_Int| (Array Int Int)) (|hhv_ULTIMATE.start_L-1_27_Int| Int) (|hhv_ULTIMATE.start_L-1_28_Int| Int) (|hhv_ULTIMATE.start_L-1_29_Int| Int) (|hhv_ULTIMATE.start_L-1_30_Int| Int) (|hhv_ULTIMATE.start_L-1_31_Int| Int) (|hhv_ULTIMATE.start_L-1_32_Int| Int) (|hhv_ULTIMATE.start_L-1_33_Int| Int) (|hhv_ULTIMATE.start_L-1_34_Int| Int) (|hhv_ULTIMATE.start_L-1_35_Int| Int) (|hhv_ULTIMATE.start_L-1_36_Int| Int) (|hhv_ULTIMATE.start_L-1_37_Int| Int) (|hhv_ULTIMATE.start_L-1_38_Int| Int) (|hhv_ULTIMATE.start_L-1_39_Int| Int) (|hhv_ULTIMATE.start_L-1_40_Bool| Bool) (|.loc.3| Bool) (|.loc.4| Bool) (|hbv_ULTIMATE.start_L-1_15_Int| Int) (|hbv_ULTIMATE.start_L-1_0_Int| Int) (|hbv_ULTIMATE.start_L-1_2_Int| Int) (|hbv_ULTIMATE.start_L-1_12_Int| Int) (|hbv_ULTIMATE.start_L5_34_Int| Int) (|hbv_ULTIMATE.start_L5_33_Int| Int) (|.x.133| Int) (|.x.135| Int) (|.x.137| Int) (|.x.139| Int) (|.x.141| Int) (|.x.143| Int) (|.x.145| Int) (|.x.146| Int) (|.x.148| Int) (|.x.150| Int) (|.x.152| (Array Int Int)) (|.x.154| (Array Int Int)) (|.x.158| (Array Int Int)) (|.x.156| Int) (|.loc.5| Bool) (|.loc.6| Bool) (|.x.140| Int) (|.x.144| Int) (|.x.136| Int) (|.x.155| Int) (|.x.149| Int) (|.x.134| Int) (|.x.147| Int) (|.x.132| Int) (|.x.153| (Array Int Int)) (|.x.159| Int) (|.x.161| Int) (|.x.167| Int) (|.x.171| Int) (|.x.163| Int) (|.x.160| Int) (|.x.170| Int) (|.x.164| Int) (|.x.162| Int) (|hhv_ULTIMATE.start_ULTIMATE.startEXIT_40_Bool| Bool) (|.x.157| (Array Int Int)) (|.x.142| Int) (|.x.151| (Array Int Int)) (|.x.138| Int) (|.x.168| Int) (|.x.165| Int) (|.x.166| Int) (|.x.169| Int) (|.xtv.1| Int) (|.xtv.2| Int) (|.xtv.3| Int) (|.xtv.4| Int) (|.xtv.5| Int) (|.xtv.6| Int)) (=> (and (and (not .loc.4) (not .loc.3)) (and (and (and (and (and (and (and (and (and (and (and (and (and (= hbv_ULTIMATE.start_ULTIMATE.startENTRY_6_Int hhv_ULTIMATE.start_L-1_7_Int) (= hbv_ULTIMATE.start_ULTIMATE.startENTRY_12_Int hhv_ULTIMATE.start_L-1_13_Int)) (= hhv_ULTIMATE.start_L-1_21_Array_Int_Array_Int_Int hhv_ULTIMATE.start_L-1_22_Array_Int_Array_Int_Int)) (not hhv_ULTIMATE.start_L-1_40_Bool)) (= hbv_ULTIMATE.start_ULTIMATE.startENTRY_17_Int hhv_ULTIMATE.start_L-1_18_Int)) (= hbv_ULTIMATE.start_ULTIMATE.startENTRY_15_Int hhv_ULTIMATE.start_L-1_16_Int)) (= hbv_ULTIMATE.start_ULTIMATE.startENTRY_8_Int hhv_ULTIMATE.start_L-1_9_Int)) (= hbv_ULTIMATE.start_ULTIMATE.startENTRY_10_Int hhv_ULTIMATE.start_L-1_11_Int)) (= hbv_ULTIMATE.start_ULTIMATE.startENTRY_2_Int hhv_ULTIMATE.start_L-1_3_Int)) (= hbv_ULTIMATE.start_ULTIMATE.startENTRY_25_Array_Int_Int hhv_ULTIMATE.start_L-1_26_Array_Int_Int)) (= hbv_ULTIMATE.start_ULTIMATE.startENTRY_0_Int hhv_ULTIMATE.start_L-1_1_Int)) (= hbv_ULTIMATE.start_ULTIMATE.startENTRY_19_Array_Int_Int hhv_ULTIMATE.start_L-1_20_Array_Int_Int)) (= hbv_ULTIMATE.start_ULTIMATE.startENTRY_4_Int hhv_ULTIMATE.start_L-1_5_Int)) (= hbv_ULTIMATE.start_ULTIMATE.startENTRY_23_Int hhv_ULTIMATE.start_L-1_24_Int))) (state |hbv_ULTIMATE.start_ULTIMATE.startENTRY_0_Int| |hhv_ULTIMATE.start_L-1_1_Int| |hbv_ULTIMATE.start_ULTIMATE.startENTRY_2_Int| |hhv_ULTIMATE.start_L-1_3_Int| |hbv_ULTIMATE.start_ULTIMATE.startENTRY_4_Int| |hhv_ULTIMATE.start_L-1_5_Int| |hbv_ULTIMATE.start_ULTIMATE.startENTRY_6_Int| |hhv_ULTIMATE.start_L-1_7_Int| |hbv_ULTIMATE.start_ULTIMATE.startENTRY_8_Int| |hhv_ULTIMATE.start_L-1_9_Int| |hbv_ULTIMATE.start_ULTIMATE.startENTRY_10_Int| |hhv_ULTIMATE.start_L-1_11_Int| |hbv_ULTIMATE.start_ULTIMATE.startENTRY_12_Int| |hhv_ULTIMATE.start_L-1_13_Int| |hhv_ULTIMATE.start_L-1_14_Int| |hbv_ULTIMATE.start_ULTIMATE.startENTRY_15_Int| |hhv_ULTIMATE.start_L-1_16_Int| |hbv_ULTIMATE.start_ULTIMATE.startENTRY_17_Int| |hhv_ULTIMATE.start_L-1_18_Int| |hbv_ULTIMATE.start_ULTIMATE.startENTRY_19_Array_Int_Int| |hhv_ULTIMATE.start_L-1_20_Array_Int_Int| |hhv_ULTIMATE.start_L-1_21_Array_Int_Array_Int_Int| |hhv_ULTIMATE.start_L-1_22_Array_Int_Array_Int_Int| |hbv_ULTIMATE.start_ULTIMATE.startENTRY_23_Int| |hhv_ULTIMATE.start_L-1_24_Int| |hbv_ULTIMATE.start_ULTIMATE.startENTRY_25_Array_Int_Int| |hhv_ULTIMATE.start_L-1_26_Array_Int_Int| |hhv_ULTIMATE.start_L-1_27_Int| |hhv_ULTIMATE.start_L-1_28_Int| |hhv_ULTIMATE.start_L-1_29_Int| |hhv_ULTIMATE.start_L-1_30_Int| |hhv_ULTIMATE.start_L-1_31_Int| |hhv_ULTIMATE.start_L-1_32_Int| |hhv_ULTIMATE.start_L-1_33_Int| |hhv_ULTIMATE.start_L-1_34_Int| |hhv_ULTIMATE.start_L-1_35_Int| |hhv_ULTIMATE.start_L-1_36_Int| |hhv_ULTIMATE.start_L-1_37_Int| |hhv_ULTIMATE.start_L-1_38_Int| |hhv_ULTIMATE.start_L-1_39_Int| |hhv_ULTIMATE.start_L-1_40_Bool| |.loc.3| |.loc.4| |hbv_ULTIMATE.start_L-1_15_Int| |hbv_ULTIMATE.start_L-1_0_Int| |hbv_ULTIMATE.start_L-1_2_Int| |hbv_ULTIMATE.start_L-1_12_Int| |hbv_ULTIMATE.start_L5_34_Int| |hbv_ULTIMATE.start_L5_33_Int|))))
(assert (forall ((|hbv_ULTIMATE.start_ULTIMATE.startENTRY_0_Int| Int) (|hhv_ULTIMATE.start_L-1_1_Int| Int) (|hbv_ULTIMATE.start_ULTIMATE.startENTRY_2_Int| Int) (|hhv_ULTIMATE.start_L-1_3_Int| Int) (|hbv_ULTIMATE.start_ULTIMATE.startENTRY_4_Int| Int) (|hhv_ULTIMATE.start_L-1_5_Int| Int) (|hbv_ULTIMATE.start_ULTIMATE.startENTRY_6_Int| Int) (|hhv_ULTIMATE.start_L-1_7_Int| Int) (|hbv_ULTIMATE.start_ULTIMATE.startENTRY_8_Int| Int) (|hhv_ULTIMATE.start_L-1_9_Int| Int) (|hbv_ULTIMATE.start_ULTIMATE.startENTRY_10_Int| Int) (|hhv_ULTIMATE.start_L-1_11_Int| Int) (|hbv_ULTIMATE.start_ULTIMATE.startENTRY_12_Int| Int) (|hhv_ULTIMATE.start_L-1_13_Int| Int) (|hhv_ULTIMATE.start_L-1_14_Int| Int) (|hbv_ULTIMATE.start_ULTIMATE.startENTRY_15_Int| Int) (|hhv_ULTIMATE.start_L-1_16_Int| Int) (|hbv_ULTIMATE.start_ULTIMATE.startENTRY_17_Int| Int) (|hhv_ULTIMATE.start_L-1_18_Int| Int) (|hbv_ULTIMATE.start_ULTIMATE.startENTRY_19_Array_Int_Int| (Array Int Int)) (|hhv_ULTIMATE.start_L-1_20_Array_Int_Int| (Array Int Int)) (|hhv_ULTIMATE.start_L-1_21_Array_Int_Array_Int_Int| (Array Int Int)) (|hhv_ULTIMATE.start_L-1_22_Array_Int_Array_Int_Int| (Array Int Int)) (|hbv_ULTIMATE.start_ULTIMATE.startENTRY_23_Int| Int) (|hhv_ULTIMATE.start_L-1_24_Int| Int) (|hbv_ULTIMATE.start_ULTIMATE.startENTRY_25_Array_Int_Int| (Array Int Int)) (|hhv_ULTIMATE.start_L-1_26_Array_Int_Int| (Array Int Int)) (|hhv_ULTIMATE.start_L-1_27_Int| Int) (|hhv_ULTIMATE.start_L-1_28_Int| Int) (|hhv_ULTIMATE.start_L-1_29_Int| Int) (|hhv_ULTIMATE.start_L-1_30_Int| Int) (|hhv_ULTIMATE.start_L-1_31_Int| Int) (|hhv_ULTIMATE.start_L-1_32_Int| Int) (|hhv_ULTIMATE.start_L-1_33_Int| Int) (|hhv_ULTIMATE.start_L-1_34_Int| Int) (|hhv_ULTIMATE.start_L-1_35_Int| Int) (|hhv_ULTIMATE.start_L-1_36_Int| Int) (|hhv_ULTIMATE.start_L-1_37_Int| Int) (|hhv_ULTIMATE.start_L-1_38_Int| Int) (|hhv_ULTIMATE.start_L-1_39_Int| Int) (|hhv_ULTIMATE.start_L-1_40_Bool| Bool) (|.loc.3| Bool) (|.loc.4| Bool) (|hbv_ULTIMATE.start_L-1_15_Int| Int) (|hbv_ULTIMATE.start_L-1_0_Int| Int) (|hbv_ULTIMATE.start_L-1_2_Int| Int) (|hbv_ULTIMATE.start_L-1_12_Int| Int) (|hbv_ULTIMATE.start_L5_34_Int| Int) (|hbv_ULTIMATE.start_L5_33_Int| Int) (|.x.133| Int) (|.x.135| Int) (|.x.137| Int) (|.x.139| Int) (|.x.141| Int) (|.x.143| Int) (|.x.145| Int) (|.x.146| Int) (|.x.148| Int) (|.x.150| Int) (|.x.152| (Array Int Int)) (|.x.154| (Array Int Int)) (|.x.158| (Array Int Int)) (|.x.156| Int) (|.loc.5| Bool) (|.loc.6| Bool) (|.x.140| Int) (|.x.144| Int) (|.x.136| Int) (|.x.155| Int) (|.x.149| Int) (|.x.134| Int) (|.x.147| Int) (|.x.132| Int) (|.x.153| (Array Int Int)) (|.x.159| Int) (|.x.161| Int) (|.x.167| Int) (|.x.171| Int) (|.x.163| Int) (|.x.160| Int) (|.x.170| Int) (|.x.164| Int) (|.x.162| Int) (|hhv_ULTIMATE.start_ULTIMATE.startEXIT_40_Bool| Bool) (|.x.157| (Array Int Int)) (|.x.142| Int) (|.x.151| (Array Int Int)) (|.x.138| Int) (|.x.168| Int) (|.x.165| Int) (|.x.166| Int) (|.x.169| Int) (|.xtv.1| Int) (|.xtv.2| Int) (|.xtv.3| Int) (|.xtv.4| Int) (|.xtv.5| Int) (|.xtv.6| Int)) (=> (and (state |hbv_ULTIMATE.start_ULTIMATE.startENTRY_0_Int| |hhv_ULTIMATE.start_L-1_1_Int| |hbv_ULTIMATE.start_ULTIMATE.startENTRY_2_Int| |hhv_ULTIMATE.start_L-1_3_Int| |hbv_ULTIMATE.start_ULTIMATE.startENTRY_4_Int| |hhv_ULTIMATE.start_L-1_5_Int| |hbv_ULTIMATE.start_ULTIMATE.startENTRY_6_Int| |hhv_ULTIMATE.start_L-1_7_Int| |hbv_ULTIMATE.start_ULTIMATE.startENTRY_8_Int| |hhv_ULTIMATE.start_L-1_9_Int| |hbv_ULTIMATE.start_ULTIMATE.startENTRY_10_Int| |hhv_ULTIMATE.start_L-1_11_Int| |hbv_ULTIMATE.start_ULTIMATE.startENTRY_12_Int| |hhv_ULTIMATE.start_L-1_13_Int| |hhv_ULTIMATE.start_L-1_14_Int| |hbv_ULTIMATE.start_ULTIMATE.startENTRY_15_Int| |hhv_ULTIMATE.start_L-1_16_Int| |hbv_ULTIMATE.start_ULTIMATE.startENTRY_17_Int| |hhv_ULTIMATE.start_L-1_18_Int| |hbv_ULTIMATE.start_ULTIMATE.startENTRY_19_Array_Int_Int| |hhv_ULTIMATE.start_L-1_20_Array_Int_Int| |hhv_ULTIMATE.start_L-1_21_Array_Int_Array_Int_Int| |hhv_ULTIMATE.start_L-1_22_Array_Int_Array_Int_Int| |hbv_ULTIMATE.start_ULTIMATE.startENTRY_23_Int| |hhv_ULTIMATE.start_L-1_24_Int| |hbv_ULTIMATE.start_ULTIMATE.startENTRY_25_Array_Int_Int| |hhv_ULTIMATE.start_L-1_26_Array_Int_Int| |hhv_ULTIMATE.start_L-1_27_Int| |hhv_ULTIMATE.start_L-1_28_Int| |hhv_ULTIMATE.start_L-1_29_Int| |hhv_ULTIMATE.start_L-1_30_Int| |hhv_ULTIMATE.start_L-1_31_Int| |hhv_ULTIMATE.start_L-1_32_Int| |hhv_ULTIMATE.start_L-1_33_Int| |hhv_ULTIMATE.start_L-1_34_Int| |hhv_ULTIMATE.start_L-1_35_Int| |hhv_ULTIMATE.start_L-1_36_Int| |hhv_ULTIMATE.start_L-1_37_Int| |hhv_ULTIMATE.start_L-1_38_Int| |hhv_ULTIMATE.start_L-1_39_Int| |hhv_ULTIMATE.start_L-1_40_Bool| |.loc.3| |.loc.4| |hbv_ULTIMATE.start_L-1_15_Int| |hbv_ULTIMATE.start_L-1_0_Int| |hbv_ULTIMATE.start_L-1_2_Int| |hbv_ULTIMATE.start_L-1_12_Int| |hbv_ULTIMATE.start_L5_34_Int| |hbv_ULTIMATE.start_L5_33_Int|) (let ((.def_60 (not .loc.3))) (let ((.def_136 (= hbv_ULTIMATE.start_L5_34_Int hbv_ULTIMATE.start_L5_33_Int))) (let ((.def_143 (select hhv_ULTIMATE.start_L-1_21_Array_Int_Array_Int_Int .x.136))) (let ((.def_147 (store hhv_ULTIMATE.start_L-1_21_Array_Int_Array_Int_Int .x.136 (store .def_143 .x.155 0)))) (let ((.def_152 (store .def_147 .x.140 (store (select .def_147 .x.140) .x.149 1)))) (let ((.def_201 (and (= .x.140 .x.144) (and (= (store .def_152 .x.147 (store (select .def_152 .x.147) .x.132 (select (select .def_152 .x.144) .x.134))) .x.153) (and (= .x.159 .x.161) (and (= .x.167 .x.171) (and (= hbv_ULTIMATE.start_L5_33_Int (select (select .x.153 .x.167) .x.163)) (and (= hbv_ULTIMATE.start_L5_34_Int (select (select .x.153 .x.160) .x.161)) (and (= .x.136 .x.170) (and (= .x.160 .x.170) (and (= .x.149 .x.134) (and (= .x.136 .x.147) (and (= .x.163 .x.164) (and (= .x.155 .x.159) (and (= .x.155 .x.132) (and (= .x.140 .x.171) (= .x.149 .x.164))))))))))))))))) (let ((.def_204 (= hhv_ULTIMATE.start_L-1_30_Int .x.162))) (let ((.def_208 (store (store hbv_ULTIMATE.start_ULTIMATE.startENTRY_19_Array_Int_Int 0 0) .x.136 1))) (let ((.def_211 (= .x.136 0))) (let ((.def_262 (or hhv_ULTIMATE.start_L-1_40_Bool (and (= (select .def_208 .x.140) 0) (and (not .def_211) (and (= .x.149 0) (and (and (and (and (= hbv_ULTIMATE.start_L-1_12_Int 0) (and (= hbv_ULTIMATE.start_L-1_2_Int 0) (and (and (and (and (and (and (and (= hbv_ULTIMATE.start_L-1_0_Int 0) (and (and (= hbv_ULTIMATE.start_L-1_15_Int 0) (not (<= hhv_ULTIMATE.start_L-1_14_Int .x.140))) (= (store (store hbv_ULTIMATE.start_ULTIMATE.startENTRY_25_Array_Int_Int .x.136 4) .x.140 4) .x.157))) (= (select (select hhv_ULTIMATE.start_L-1_21_Array_Int_Array_Int_Int .x.140) .x.149) 0)) (= .x.142 0)) (= (store .def_208 .x.140 1) .x.151)) (not (<= hhv_ULTIMATE.start_L-1_14_Int .x.136))) (= .x.155 0)) (= (select .def_143 .x.155) 0)))) (not (= .x.140 0))) (= .x.138 0)) (= (ite .def_211 0 (select hbv_ULTIMATE.start_ULTIMATE.startENTRY_19_Array_Int_Int .x.136)) 0)))))))) (let ((.def_300 (= hhv_ULTIMATE.start_L-1_40_Bool hhv_ULTIMATE.start_ULTIMATE.startEXIT_40_Bool))) (let ((.def_335 (not .loc.6))) (and (and (not .loc.4) (and (= hhv_ULTIMATE.start_L-1_1_Int .x.133) (and (= hhv_ULTIMATE.start_L-1_3_Int .x.135) (and (= hhv_ULTIMATE.start_L-1_5_Int .x.137) (and (= hhv_ULTIMATE.start_L-1_7_Int .x.139) (and (= hhv_ULTIMATE.start_L-1_9_Int .x.141) (and (= hhv_ULTIMATE.start_L-1_11_Int .x.143) (and (= hhv_ULTIMATE.start_L-1_13_Int .x.145) (and (= hhv_ULTIMATE.start_L-1_14_Int .x.146) (and (= hhv_ULTIMATE.start_L-1_16_Int .x.148) (and (= hhv_ULTIMATE.start_L-1_18_Int .x.150) (and (= hhv_ULTIMATE.start_L-1_20_Array_Int_Int .x.152) (and (= hhv_ULTIMATE.start_L-1_22_Array_Int_Array_Int_Int .x.154) (and (= hhv_ULTIMATE.start_L-1_26_Array_Int_Int .x.158) (= hhv_ULTIMATE.start_L-1_24_Int .x.156))))))))))))))) (or (or (and (and (not .loc.5) .loc.6) (or (and .def_60 (and (or hhv_ULTIMATE.start_L-1_40_Bool (not .def_136)) (and (or hhv_ULTIMATE.start_L-1_40_Bool .def_201) (and (and .def_204 hhv_ULTIMATE.start_ULTIMATE.startEXIT_40_Bool) .def_262)))) (and (or hhv_ULTIMATE.start_L-1_40_Bool (= .x.168 0)) (and (= hbv_ULTIMATE.start_ULTIMATE.startENTRY_0_Int .x.132) (and (= hbv_ULTIMATE.start_ULTIMATE.startENTRY_2_Int .x.134) (and (= hbv_ULTIMATE.start_ULTIMATE.startENTRY_4_Int .x.136) (and (= hbv_ULTIMATE.start_ULTIMATE.startENTRY_6_Int .x.138) (and (= hbv_ULTIMATE.start_ULTIMATE.startENTRY_8_Int .x.140) (and (= hbv_ULTIMATE.start_ULTIMATE.startENTRY_10_Int .x.142) (and (= hbv_ULTIMATE.start_ULTIMATE.startENTRY_12_Int .x.144) (and (= hbv_ULTIMATE.start_ULTIMATE.startENTRY_15_Int .x.147) (and (= hbv_ULTIMATE.start_ULTIMATE.startENTRY_17_Int .x.149) (and (= hbv_ULTIMATE.start_ULTIMATE.startENTRY_19_Array_Int_Int .x.151) (and (= hhv_ULTIMATE.start_L-1_21_Array_Int_Array_Int_Int .x.153) (and (= hbv_ULTIMATE.start_ULTIMATE.startENTRY_23_Int .x.155) (and (= hbv_ULTIMATE.start_ULTIMATE.startENTRY_25_Array_Int_Int .x.157) (and (= hhv_ULTIMATE.start_L-1_27_Int .x.159) (and (= hhv_ULTIMATE.start_L-1_28_Int .x.160) (and (= hhv_ULTIMATE.start_L-1_29_Int .x.161) (and (= hhv_ULTIMATE.start_L-1_31_Int .x.163) (and (= hhv_ULTIMATE.start_L-1_32_Int .x.164) (and (= hhv_ULTIMATE.start_L-1_33_Int .x.165) (and (= hhv_ULTIMATE.start_L-1_34_Int .x.166) (and (= hhv_ULTIMATE.start_L-1_35_Int .x.167) (and (= hhv_ULTIMATE.start_L-1_37_Int .x.169) (and (= hhv_ULTIMATE.start_L-1_38_Int .x.170) (and (= hhv_ULTIMATE.start_L-1_39_Int .x.171) (and (and .loc.3 (or hhv_ULTIMATE.start_ULTIMATE.startEXIT_40_Bool (= .x.162 .x.168))) .def_300)))))))))))))))))))))))))))) (and (or .def_201 hhv_ULTIMATE.start_ULTIMATE.startEXIT_40_Bool) (and (or .def_136 hhv_ULTIMATE.start_ULTIMATE.startEXIT_40_Bool) (and (and .def_300 (and .loc.5 (and .def_60 (and .def_204 .def_262)))) .def_335)))) (and .def_335 (and .loc.5 (and .def_60 (and .def_262 (and .def_204 (and hhv_ULTIMATE.start_L-1_40_Bool hhv_ULTIMATE.start_ULTIMATE.startEXIT_40_Bool))))))))))))))))))))) (state |.x.132| |.x.133| |.x.134| |.x.135| |.x.136| |.x.137| |.x.138| |.x.139| |.x.140| |.x.141| |.x.142| |.x.143| |.x.144| |.x.145| |.x.146| |.x.147| |.x.148| |.x.149| |.x.150| |.x.151| |.x.152| |.x.153| |.x.154| |.x.155| |.x.156| |.x.157| |.x.158| |.x.159| |.x.160| |.x.161| |.x.162| |.x.163| |.x.164| |.x.165| |.x.166| |.x.167| |.x.168| |.x.169| |.x.170| |.x.171| |hhv_ULTIMATE.start_ULTIMATE.startEXIT_40_Bool| |.loc.5| |.loc.6| |.xtv.1| |.xtv.2| |.xtv.3| |.xtv.4| |.xtv.5| |.xtv.6|))))
(assert (forall ((|hbv_ULTIMATE.start_ULTIMATE.startENTRY_0_Int| Int) (|hhv_ULTIMATE.start_L-1_1_Int| Int) (|hbv_ULTIMATE.start_ULTIMATE.startENTRY_2_Int| Int) (|hhv_ULTIMATE.start_L-1_3_Int| Int) (|hbv_ULTIMATE.start_ULTIMATE.startENTRY_4_Int| Int) (|hhv_ULTIMATE.start_L-1_5_Int| Int) (|hbv_ULTIMATE.start_ULTIMATE.startENTRY_6_Int| Int) (|hhv_ULTIMATE.start_L-1_7_Int| Int) (|hbv_ULTIMATE.start_ULTIMATE.startENTRY_8_Int| Int) (|hhv_ULTIMATE.start_L-1_9_Int| Int) (|hbv_ULTIMATE.start_ULTIMATE.startENTRY_10_Int| Int) (|hhv_ULTIMATE.start_L-1_11_Int| Int) (|hbv_ULTIMATE.start_ULTIMATE.startENTRY_12_Int| Int) (|hhv_ULTIMATE.start_L-1_13_Int| Int) (|hhv_ULTIMATE.start_L-1_14_Int| Int) (|hbv_ULTIMATE.start_ULTIMATE.startENTRY_15_Int| Int) (|hhv_ULTIMATE.start_L-1_16_Int| Int) (|hbv_ULTIMATE.start_ULTIMATE.startENTRY_17_Int| Int) (|hhv_ULTIMATE.start_L-1_18_Int| Int) (|hbv_ULTIMATE.start_ULTIMATE.startENTRY_19_Array_Int_Int| (Array Int Int)) (|hhv_ULTIMATE.start_L-1_20_Array_Int_Int| (Array Int Int)) (|hhv_ULTIMATE.start_L-1_21_Array_Int_Array_Int_Int| (Array Int Int)) (|hhv_ULTIMATE.start_L-1_22_Array_Int_Array_Int_Int| (Array Int Int)) (|hbv_ULTIMATE.start_ULTIMATE.startENTRY_23_Int| Int) (|hhv_ULTIMATE.start_L-1_24_Int| Int) (|hbv_ULTIMATE.start_ULTIMATE.startENTRY_25_Array_Int_Int| (Array Int Int)) (|hhv_ULTIMATE.start_L-1_26_Array_Int_Int| (Array Int Int)) (|hhv_ULTIMATE.start_L-1_27_Int| Int) (|hhv_ULTIMATE.start_L-1_28_Int| Int) (|hhv_ULTIMATE.start_L-1_29_Int| Int) (|hhv_ULTIMATE.start_L-1_30_Int| Int) (|hhv_ULTIMATE.start_L-1_31_Int| Int) (|hhv_ULTIMATE.start_L-1_32_Int| Int) (|hhv_ULTIMATE.start_L-1_33_Int| Int) (|hhv_ULTIMATE.start_L-1_34_Int| Int) (|hhv_ULTIMATE.start_L-1_35_Int| Int) (|hhv_ULTIMATE.start_L-1_36_Int| Int) (|hhv_ULTIMATE.start_L-1_37_Int| Int) (|hhv_ULTIMATE.start_L-1_38_Int| Int) (|hhv_ULTIMATE.start_L-1_39_Int| Int) (|hhv_ULTIMATE.start_L-1_40_Bool| Bool) (|.loc.3| Bool) (|.loc.4| Bool) (|hbv_ULTIMATE.start_L-1_15_Int| Int) (|hbv_ULTIMATE.start_L-1_0_Int| Int) (|hbv_ULTIMATE.start_L-1_2_Int| Int) (|hbv_ULTIMATE.start_L-1_12_Int| Int) (|hbv_ULTIMATE.start_L5_34_Int| Int) (|hbv_ULTIMATE.start_L5_33_Int| Int) (|.x.133| Int) (|.x.135| Int) (|.x.137| Int) (|.x.139| Int) (|.x.141| Int) (|.x.143| Int) (|.x.145| Int) (|.x.146| Int) (|.x.148| Int) (|.x.150| Int) (|.x.152| (Array Int Int)) (|.x.154| (Array Int Int)) (|.x.158| (Array Int Int)) (|.x.156| Int) (|.loc.5| Bool) (|.loc.6| Bool) (|.x.140| Int) (|.x.144| Int) (|.x.136| Int) (|.x.155| Int) (|.x.149| Int) (|.x.134| Int) (|.x.147| Int) (|.x.132| Int) (|.x.153| (Array Int Int)) (|.x.159| Int) (|.x.161| Int) (|.x.167| Int) (|.x.171| Int) (|.x.163| Int) (|.x.160| Int) (|.x.170| Int) (|.x.164| Int) (|.x.162| Int) (|hhv_ULTIMATE.start_ULTIMATE.startEXIT_40_Bool| Bool) (|.x.157| (Array Int Int)) (|.x.142| Int) (|.x.151| (Array Int Int)) (|.x.138| Int) (|.x.168| Int) (|.x.165| Int) (|.x.166| Int) (|.x.169| Int) (|.xtv.1| Int) (|.xtv.2| Int) (|.xtv.3| Int) (|.xtv.4| Int) (|.xtv.5| Int) (|.xtv.6| Int)) (=> (state |hbv_ULTIMATE.start_ULTIMATE.startENTRY_0_Int| |hhv_ULTIMATE.start_L-1_1_Int| |hbv_ULTIMATE.start_ULTIMATE.startENTRY_2_Int| |hhv_ULTIMATE.start_L-1_3_Int| |hbv_ULTIMATE.start_ULTIMATE.startENTRY_4_Int| |hhv_ULTIMATE.start_L-1_5_Int| |hbv_ULTIMATE.start_ULTIMATE.startENTRY_6_Int| |hhv_ULTIMATE.start_L-1_7_Int| |hbv_ULTIMATE.start_ULTIMATE.startENTRY_8_Int| |hhv_ULTIMATE.start_L-1_9_Int| |hbv_ULTIMATE.start_ULTIMATE.startENTRY_10_Int| |hhv_ULTIMATE.start_L-1_11_Int| |hbv_ULTIMATE.start_ULTIMATE.startENTRY_12_Int| |hhv_ULTIMATE.start_L-1_13_Int| |hhv_ULTIMATE.start_L-1_14_Int| |hbv_ULTIMATE.start_ULTIMATE.startENTRY_15_Int| |hhv_ULTIMATE.start_L-1_16_Int| |hbv_ULTIMATE.start_ULTIMATE.startENTRY_17_Int| |hhv_ULTIMATE.start_L-1_18_Int| |hbv_ULTIMATE.start_ULTIMATE.startENTRY_19_Array_Int_Int| |hhv_ULTIMATE.start_L-1_20_Array_Int_Int| |hhv_ULTIMATE.start_L-1_21_Array_Int_Array_Int_Int| |hhv_ULTIMATE.start_L-1_22_Array_Int_Array_Int_Int| |hbv_ULTIMATE.start_ULTIMATE.startENTRY_23_Int| |hhv_ULTIMATE.start_L-1_24_Int| |hbv_ULTIMATE.start_ULTIMATE.startENTRY_25_Array_Int_Int| |hhv_ULTIMATE.start_L-1_26_Array_Int_Int| |hhv_ULTIMATE.start_L-1_27_Int| |hhv_ULTIMATE.start_L-1_28_Int| |hhv_ULTIMATE.start_L-1_29_Int| |hhv_ULTIMATE.start_L-1_30_Int| |hhv_ULTIMATE.start_L-1_31_Int| |hhv_ULTIMATE.start_L-1_32_Int| |hhv_ULTIMATE.start_L-1_33_Int| |hhv_ULTIMATE.start_L-1_34_Int| |hhv_ULTIMATE.start_L-1_35_Int| |hhv_ULTIMATE.start_L-1_36_Int| |hhv_ULTIMATE.start_L-1_37_Int| |hhv_ULTIMATE.start_L-1_38_Int| |hhv_ULTIMATE.start_L-1_39_Int| |hhv_ULTIMATE.start_L-1_40_Bool| |.loc.3| |.loc.4| |hbv_ULTIMATE.start_L-1_15_Int| |hbv_ULTIMATE.start_L-1_0_Int| |hbv_ULTIMATE.start_L-1_2_Int| |hbv_ULTIMATE.start_L-1_12_Int| |hbv_ULTIMATE.start_L5_34_Int| |hbv_ULTIMATE.start_L5_33_Int|) (not (and hhv_ULTIMATE.start_L-1_40_Bool (and .loc.4 (not .loc.3)))))))
(check-sat)
